sat
(:max-memory        20.83
 :memory            18.30
 :num-allocs        12228421000.00
 :rlimit-count      1147578
 :sls-constraints   7811
 :sls-ddfw-flips    12120530.00
 :sls-ddfw-reinits  49
 :sls-ddfw-restarts 112
 :sls-ddfw-shifts   3467369.00
 :time              16.46
 :total-time        16.47)
